
List of user-set options:

                                    Name   Value                used
                           compl_inf_tol = 1                     yes
                         constr_viol_tol = 1                     yes
                            dual_inf_tol = 1000                  yes
                           linear_solver = ma97                  yes
                              ma86_small = 1e-30                  no
                                  ma86_u = 0.0001                 no
                              ma97_order = best                  yes
                              ma97_small = 1e-30                 yes
                            ma97_switch1 = at_start              yes
                            ma97_switch2 = od_hd_reuse           yes
                                  ma97_u = 1e-06                 yes
                               ma97_umax = 0.5                   yes
                                max_iter = 1000                  yes
                    max_refinement_steps = 20                    yes
                    min_refinement_steps = 5                     yes
                                 mu_init = 1e-06                 yes
           mu_superlinear_decrease_power = 1.25                  yes
                   nlp_scaling_min_value = 1e-08                 yes
                        option_file_name = Preset_Case_354_pf.opt  yes
                             output_file = ./tmp/Preset_Case_354_pf.output  yes
                      print_user_options = yes                   yes
        required_infeasibility_reduction = 1                      no
                                     tol = 1e-08                 yes
                   warm_start_bound_frac = 1e-20                 yes
                   warm_start_bound_push = 1e-20                 yes
                   warm_start_init_point = yes                   yes
              warm_start_mult_bound_push = 1e-20                 yes
                warm_start_mult_init_max = 1e+40                 yes
             warm_start_slack_bound_frac = 1e-20                 yes
             warm_start_slack_bound_push = 1e-20                 yes

******************************************************************************
This program contains Ipopt, a library for large-scale nonlinear optimization.
 Ipopt is released as open source code under the Eclipse Public License (EPL).
         For more information visit http://projects.coin-or.org/Ipopt
******************************************************************************

This is Ipopt version 3.12.10, running with linear solver ma97.

Number of nonzeros in equality constraint Jacobian...:   123443
Number of nonzeros in inequality constraint Jacobian.:      213
Number of nonzeros in Lagrangian Hessian.............:    49069

Total number of variables............................:    31591
                     variables with only lower bounds:    12912
                variables with lower and upper bounds:    15130
                     variables with only upper bounds:        0
Total number of equality constraints.................:    31483
Total number of inequality constraints...............:       25
        inequality constraints with only lower bounds:        4
   inequality constraints with lower and upper bounds:        0
        inequality constraints with only upper bounds:       21

iter    objective    inf_pr   inf_du lg(mu)  ||d||  lg(rg) alpha_du alpha_pr  ls
   0 -5.1862736e+00 4.01e-03 1.02e+00  -6.0 0.00e+00    -  0.00e+00 0.00e+00   0
   1 -5.1856095e+00 5.32e-03 1.02e+00  -6.0 3.37e+05    -  1.37e-04 4.44e-05h  5
   2 -5.1873240e+00 6.76e-03 5.14e+01  -6.0 8.36e+03    -  2.27e-01 1.96e-03h  1
   3 -5.2511765e+00 3.92e+00 9.47e+01  -6.0 6.08e+03    -  4.13e-02 7.34e-02f  1
   4 -5.3348211e+00 8.86e+00 2.14e+02  -6.0 5.08e+03    -  3.10e-03 1.08e-01h  1
   5 -5.3574307e+00 5.54e+01 2.16e+02  -6.0 4.70e+04    -  1.26e-02 3.40e-02h  1
   6 -5.4185197e+00 5.56e+01 1.76e+03  -6.0 5.45e+03    -  1.13e-01 9.62e-02h  1
   7 -5.6135681e+00 4.31e+01 1.92e+04  -6.0 3.43e+03    -  1.30e-01 3.60e-01h  1
   8 -5.6106855e+00 3.89e+01 1.63e+04  -6.0 6.54e+00  -4.0 5.43e-01 9.68e-02h  1
   9 -5.7113766e+00 2.73e+01 6.46e+03  -6.0 2.27e+03    -  1.86e-01 6.16e-01h  1
iter    objective    inf_pr   inf_du lg(mu)  ||d||  lg(rg) alpha_du alpha_pr  ls
  10 -5.7321620e+00 2.32e+01 5.44e+03  -6.0 2.46e+03    -  3.64e-01 1.51e-01h  1
  11 -5.7659503e+00 1.51e+01 3.44e+03  -6.0 1.92e+03    -  6.09e-01 3.61e-01h  1
  12 -5.7101555e+00 4.71e-02 3.94e+04  -6.0 5.25e+00  -4.5 2.63e-05 1.00e+00h  1
  13 -5.7109589e+00 7.05e-04 2.04e+01  -6.0 6.14e+00  -5.0 2.66e-01 1.00e+00h  1
  14 -5.7143293e+00 4.96e-03 3.69e-01  -6.0 1.63e+01  -5.4 1.00e+00 1.00e+00h  1
  15 -5.7215422e+00 2.29e-02 9.80e+00  -6.0 3.50e+01  -5.9 4.81e-01 1.00e+00h  1
  16 -5.7326903e+00 7.01e-02 5.54e+00  -6.0 5.39e+01  -6.4 9.12e-01 1.00e+00h  1
  17 -5.7473462e+00 5.47e-01 4.91e+00  -6.0 1.35e+02  -6.9 1.00e+00 1.00e+00h  1
  18 -5.7558723e+00 1.32e+00 6.19e+00  -6.0 7.71e+02  -7.3 2.85e-01 2.26e-01h  1
  19 -5.7624834e+00 2.26e-01 2.97e+04  -6.0 2.40e+02  -7.8 2.58e-01 8.60e-01h  1
iter    objective    inf_pr   inf_du lg(mu)  ||d||  lg(rg) alpha_du alpha_pr  ls
  20 -5.7662755e+00 3.74e-01 1.09e+02  -6.0 1.13e+02  -6.5 1.00e+00 1.00e+00h  1
  21 -5.7754512e+00 7.87e-01 6.95e+02  -6.0 4.14e+02  -7.0 4.11e-01 3.29e-01h  1
  22 -5.7817170e+00 9.58e-01 3.23e+04  -6.0 7.61e+03  -7.4 4.60e-02 1.04e-02h  1
  23 -5.7944634e+00 8.47e-01 8.84e+04  -6.0 2.13e+02  -7.0 1.00e+00 6.09e-01h  1
  24 -5.8040340e+00 7.20e-01 9.84e+05  -6.0 3.19e+02  -7.5 8.39e-02 3.99e-01h  1
  25 -5.8042418e+00 7.19e-01 9.84e+05  -6.0 9.50e+02  -7.1 1.46e-01 2.03e-03h  1
  26 -5.8236719e+00 1.37e+00 6.85e+05  -6.0 3.25e+02  -7.5 5.14e-01 4.55e-01f  1
  27 -5.8515314e+00 2.41e+01 6.24e+07  -6.0 1.16e+03  -8.0 2.09e-02 9.90e-01h  1
  28 -5.8633872e+00 2.17e+01 5.24e+07  -6.0 2.20e+03  -6.7 2.93e-02 1.60e-01h  1
  29 -5.8633876e+00 2.17e+01 5.24e+07  -6.0 5.51e+02  -7.2 1.76e-01 3.40e-04h  1
iter    objective    inf_pr   inf_du lg(mu)  ||d||  lg(rg) alpha_du alpha_pr  ls
  30 -5.8267935e+00 7.35e+00 3.13e+05  -6.0 6.37e+02  -7.6 6.21e-01 1.00e+00h  1
  31 -5.8335840e+00 6.37e+00 2.71e+05  -6.0 3.52e+03    -  1.40e-01 1.35e-01h  1
  32 -5.8391665e+00 5.28e+00 2.24e+05  -6.0 2.06e+03    -  9.66e-01 1.72e-01h  1
  33 -5.8454372e+00 3.70e+00 1.57e+05  -6.0 1.01e+03    -  2.94e-01 3.01e-01h  1
  34 -5.8518845e+00 3.34e+00 5.76e+04  -6.0 7.28e+02    -  1.22e-01 6.32e-01h  1
  35 -5.8512507e+00 1.84e-03 1.35e+01  -6.0 6.58e+00  -6.3 3.17e-01 1.00e+00h  1
  36 -5.8521566e+00 9.64e-02 3.32e+01  -6.0 2.40e+02    -  1.00e+00 1.00e+00h  1
  37 -5.8516962e+00 9.34e-05 1.14e-02  -6.0 5.89e-01  -6.8 1.00e+00 1.00e+00h  1
  38 -5.8516967e+00 8.29e-04 1.77e-04  -6.0 1.78e+00  -7.3 1.00e+00 1.00e+00h  1
  39 -5.8516972e+00 6.99e-03 3.55e-04  -6.0 5.37e+00  -7.7 1.00e+00 1.00e+00h  1
iter    objective    inf_pr   inf_du lg(mu)  ||d||  lg(rg) alpha_du alpha_pr  ls
  40 -5.8516984e+00 4.74e-02 1.85e-03  -6.0 1.64e+01  -8.2 1.00e+00 1.00e+00h  1
  41 -5.8517013e+00 4.35e-03 1.90e-02  -6.0 4.98e+01  -8.7 1.00e+00 1.00e+00H  1
  42 -5.8517045e+00 5.36e-02 2.76e+01  -6.0 1.14e+03    -  1.00e+00 4.66e-02h  3
  43 -5.8517064e+00 7.80e-02 2.24e+01  -6.0 6.33e+02    -  1.00e+00 6.15e-02h  4
  44 -5.8517075e+00 8.54e-02 1.72e+01  -6.0 5.17e+02    -  1.00e+00 4.78e-02h  5
  45 -5.8516970e+00 1.41e-01 8.89e+02  -6.0 4.98e+02    -  1.00e+00 1.00e+00H  1
  46 -5.8517028e+00 1.06e-01 5.70e-02  -6.0 7.73e+01    -  1.00e+00 1.00e+00h  1
  47 -5.8517020e+00 1.38e-05 9.68e-06  -6.0 9.46e-01    -  1.00e+00 1.00e+00h  1
  48 -5.8518526e+00 4.79e+00 4.76e+01  -7.5 7.03e+02    -  6.27e-01 7.92e-01h  1
  49 -5.8518349e+00 9.74e-01 6.76e+00  -7.5 1.64e+02    -  9.81e-01 8.68e-01h  1
iter    objective    inf_pr   inf_du lg(mu)  ||d||  lg(rg) alpha_du alpha_pr  ls
  50 -5.8518284e+00 7.64e-03 1.18e-02  -7.5 2.09e+01    -  1.00e+00 1.00e+00h  1
  51 -5.8518284e+00 3.96e-06 1.77e-06  -7.5 5.05e-01    -  1.00e+00 1.00e+00h  1
  52 -5.8518284e+00 2.79e-10 4.42e-10  -7.5 1.43e-03    -  1.00e+00 1.00e+00h  1
  53 -5.8518299e+00 5.87e-03 7.99e-01  -9.0 2.29e+01    -  9.22e-01 8.35e-01h  1
  54 -5.8518301e+00 1.80e-04 2.82e-04  -9.0 3.35e+00    -  1.00e+00 1.00e+00h  1
  55 -5.8518301e+00 8.34e-07 1.05e-05  -9.0 2.28e-01    -  1.00e+00 1.00e+00h  1
  56 -5.8518301e+00 2.86e-08 3.71e-07  -9.0 4.23e-02    -  1.00e+00 1.00e+00h  1
  57 -5.8518301e+00 2.84e-10 5.42e-10  -9.0 1.61e-03    -  1.00e+00 1.00e+00h  1

Number of Iterations....: 57

                                   (scaled)                 (unscaled)
Objective...............:  -4.5717422941185237e+00   -5.8518301364717100e+00
Dual infeasibility......:   5.4200888892579564e-10    6.9377137782501845e-10
Constraint violation....:   2.8353750055297444e-10    2.8353750055297444e-10
Complementarity.........:   9.0949938856967525e-10    1.1641592173691844e-09
Overall NLP error.......:   9.0949938856967525e-10    1.1641592173691844e-09


Number of objective function evaluations             = 80
Number of objective gradient evaluations             = 58
Number of equality constraint evaluations            = 80
Number of inequality constraint evaluations          = 80
Number of equality constraint Jacobian evaluations   = 58
Number of inequality constraint Jacobian evaluations = 58
Number of Lagrangian Hessian evaluations             = 57
Total CPU secs in IPOPT (w/o function evaluations)   =    139.732
Total CPU secs in NLP function evaluations           =      2.174

EXIT: Optimal Solution Found.
